30 1000
586 22
443 53
957 58
426 24
293 57
565 52
286 43
453 29
894 3
485 34
537 79
112 89
779 73
306 6
49 86
347 77
592 59
115 78
820 9
123 36
547 42
844 38
694 57
410 54
592 65
917 60
684 4
596 68
104 30
395 23
